1265
0 71 163 282 416 543 671 701 810 872 
0 13 118 155 202 311 387 543 559 671 
0 118 155 189 268 361 543 671 678 731 
13 71 155 250 364 543 612 671 810 862 
0 118 169 221 310 387 612 671 748 838 
0 71 125 166 219 310 387 450 543 566 
71 166 243 309 449 678 708 767 792 810 
312 377 387 543 671 736 777 866 946 1022 
71 118 377 405 708 810 906 967 1041 1120 
219 377 596 769 813 890 906 1041 1069 1094 
0 405 614 701 813 818 872 911 946 1041 
72 258 713 819 862 911 948 967 1029 1065 
0 278 309 437 862 948 1031 1059 1120 1193 
221 258 437 543 677 748 818 838 967 1193 
453 821 840 946 1029 1069 1092 1157 1210 1217 
